;; sequence(s): A123332
;; terms: 3 7 31 201 1713 18075 227295 3317265 55103265 1026318195 21181092975 479733356025 11829834687825 315481555464075 9046941599670975 277598531343758625 9075051786962786625 314884420627497595875 11557482238066613223375 447385119579169194047625
;; small program: loop((2 * (x * y)) + x, x, 1) + loop(2 * (x * y), x, 2)
;; fast program: (loop(x + x, x, 2) * loop(x * y, x, 1)) + loop2(x * y, 2 + y, x, 1, 1 + 2)
(set-logic UFNIA)
(declare-fun f0 (Int Int) Int)
(declare-fun g0 (Int) Int)
(declare-fun h0 () Int)
(declare-fun u0 (Int Int) Int)
(declare-fun v0 (Int) Int)
(declare-fun f1 (Int Int) Int)
(declare-fun g1 (Int) Int)
(declare-fun h1 () Int)
(declare-fun u1 (Int Int) Int)
(declare-fun v1 (Int) Int)
(declare-fun small (Int) Int)
(declare-fun f2 (Int) Int)
(declare-fun g2 (Int) Int)
(declare-fun h2 () Int)
(declare-fun u2 (Int Int) Int)
(declare-fun v2 (Int) Int)
(declare-fun f3 (Int Int) Int)
(declare-fun g3 (Int) Int)
(declare-fun h3 () Int)
(declare-fun u3 (Int Int) Int)
(declare-fun v3 (Int) Int)
(declare-fun f4 (Int Int) Int)
(declare-fun g4 (Int Int) Int)
(declare-fun h4 (Int) Int)
(declare-fun i4 () Int)
(declare-fun j4 () Int)
(declare-fun u4 (Int Int Int) Int)
(declare-fun v4 (Int Int Int) Int)
(declare-fun w4 (Int) Int)
(declare-fun fast (Int) Int)
(assert (forall ((x Int) (y Int)) (= (f0 x y) (+ (* 2 (* x y)) x))))
(assert (forall ((x Int)) (= (g0 x) x)))
(assert (= h0 1))
(assert (forall ((x Int) (y Int)) (= (u0 x y) (ite (<= x 0) y (f0 (u0 (- x 1) y) x)))))
(assert (forall ((x Int)) (= (v0 x) (u0 (g0 x) h0))))
(assert (forall ((x Int) (y Int)) (= (f1 x y) (* 2 (* x y)))))
(assert (forall ((x Int)) (= (g1 x) x)))
(assert (= h1 2))
(assert (forall ((x Int) (y Int)) (= (u1 x y) (ite (<= x 0) y (f1 (u1 (- x 1) y) x)))))
(assert (forall ((x Int)) (= (v1 x) (u1 (g1 x) h1))))
(assert (forall ((x Int)) (= (small x) (+ (v0 x) (v1 x)))))
(assert (forall ((x Int)) (= (f2 x) (+ x x))))
(assert (forall ((x Int)) (= (g2 x) x)))
(assert (= h2 2))
(assert (forall ((x Int) (y Int)) (= (u2 x y) (ite (<= x 0) y (f2 (u2 (- x 1) y))))))
(assert (forall ((x Int)) (= (v2 x) (u2 (g2 x) h2))))
(assert (forall ((x Int) (y Int)) (= (f3 x y) (* x y))))
(assert (forall ((x Int)) (= (g3 x) x)))
(assert (= h3 1))
(assert (forall ((x Int) (y Int)) (= (u3 x y) (ite (<= x 0) y (f3 (u3 (- x 1) y) x)))))
(assert (forall ((x Int)) (= (v3 x) (u3 (g3 x) h3))))
(assert (forall ((x Int) (y Int)) (= (f4 x y) (* x y))))
(assert (forall ((x Int) (y Int)) (= (g4 x y) (+ 2 y))))
(assert (forall ((x Int)) (= (h4 x) x)))
(assert (= i4 1))
(assert (= j4 (+ 1 2)))
(assert (forall ((x Int) (y Int) (z Int)) (= (u4 x y z) (ite (<= x 0) y (f4 (u4 (- x 1) y z) (v4 (- x 1) y z))))))
(assert (forall ((x Int) (y Int) (z Int)) (= (v4 x y z) (ite (<= x 0) z (g4 (u4 (- x 1) y z) (v4 (- x 1) y z))))))
(assert (forall ((x Int)) (= (w4 x) (u4 (h4 x) i4 j4))))
(assert (forall ((x Int)) (= (fast x) (+ (* (v2 x) (v3 x)) (w4 x)))))
(assert (exists ((c Int)) (and (>= c 0) (not (= (small c) (fast c))))))
(check-sat)
